job_count = 38 ;
duration = [|9, 1|12, 2|15, 9|16, 3|19, 3|12, 7|19, 3|9, 3|12, 2|14, 5|14, 9|17, 4|15, 3|9, 1|11, 2|12, 6|19, 9|2, 8|8, 9|19, 5|7, 7|4, 7|6, 8|9, 2|16, 9|4, 9|18, 1|17, 9|17, 1|12, 8|14, 7|2, 2|5, 9|4, 2|13, 7|15, 8|7, 5|5, 8|] ;
machine_count = 2 ;
cost = [|16, 36|12, 38|17, 26|10, 38|10, 22|16, 21|18, 33|13, 26|11, 28|18, 37|18, 36|15, 25|19, 29|18, 25|19, 24|12, 29|19, 27|11, 31|14, 36|17, 23|19, 30|10, 38|17, 35|14, 38|19, 25|18, 29|10, 33|11, 37|16, 39|16, 24|16, 38|13, 29|15, 25|16, 23|17, 21|18, 31|19, 36|19, 31|] ;
deadline = [95, 95, 95, 95, 95, 95, 95, 95, 95, 95, 95, 95, 95, 95, 95, 95, 95, 95, 95, 95, 95, 95, 95, 95, 95, 95, 95, 95, 95, 95, 95, 95, 95, 95, 95, 95, 95, 95] ;
release = [0, 0, 0, 0, 0, 0, 0, 0, 0, 0, 0, 0, 0, 0, 0, 0, 0, 0, 0, 0, 0, 0, 0, 0, 0, 0, 0, 0, 0, 0, 0, 0, 0, 0, 0, 0, 0, 0] ;
resource = [|2, 2|4, 4|1, 1|2, 2|1, 1|4, 4|6, 6|9, 9|1, 1|1, 1|7, 7|4, 4|5, 5|3, 3|4, 4|3, 3|8, 8|7, 7|9, 9|8, 8|5, 5|9, 9|6, 6|8, 8|5, 5|1, 1|7, 7|6, 6|7, 7|8, 8|9, 9|7, 7|3, 3|9, 9|8, 8|1, 1|1, 1|4, 4|] ;
capacities = [10, 10] ;
